;; produced by z3_gnatprove.drv ;;
(set-info :smt-lib-version 2.5)
(set-info :source |VC generated by SPARK 2014|)
(set-info :category industrial)
(set-info :status unknown)
;;; generated by SMT-LIB2 driver
;;; SMT-LIB2 driver: bit-vectors, common part
;;; SMT-LIB2: integer arithmetic
(declare-sort string 0)

(declare-datatypes () ((tuple0 (Tuple0))))
(declare-sort us_private 0)

(declare-fun private__bool_eq (us_private us_private) Bool)

(declare-const us_null_ext__ us_private)

(declare-sort us_type_of_heap 0)

(declare-datatypes ()
((us_type_of_heap__ref
 (us_type_of_heap__refqtmk (us_type_of_heap__content us_type_of_heap)))))
(declare-sort us_image 0)

(declare-datatypes () ((int__ref (int__refqtmk (int__content Int)))))
(declare-datatypes () ((bool__ref (bool__refqtmk (bool__content Bool)))))
(declare-datatypes ()
((us_fixed__ref (us_fixed__refqtmk (us_fixed__content Int)))))
(declare-datatypes () ((real__ref (real__refqtmk (real__content Real)))))
(declare-datatypes ()
((us_private__ref (us_private__refqtmk (us_private__content us_private)))))
(define-fun int__ref___projection ((a int__ref)) Int (int__content a))

(define-fun us_fixed__ref___projection ((a us_fixed__ref)) Int (us_fixed__content
                                                               a))

(define-fun bool__ref___projection ((a bool__ref)) Bool (bool__content a))

(define-fun real__ref___projection ((a real__ref)) Real (real__content a))

(define-fun us_private__ref___projection ((a us_private__ref)) us_private 
  (us_private__content a))

(define-fun in_range ((x Int)) Bool (or (= x 0) (= x 1)))

(declare-fun attr__ATTRIBUTE_IMAGE (Bool) us_image)

(declare-fun attr__ATTRIBUTE_VALUE__pre_check (us_image) Bool)

(declare-fun attr__ATTRIBUTE_VALUE (us_image) Bool)

(declare-sort t 0)

(declare-fun user_eq (t t) Bool)

(declare-const value__size Int)

(declare-const object__size Int)

(declare-const alignment Int)

;; value__size_axiom
  (assert (<= 0 value__size))

;; object__size_axiom
  (assert (<= 0 object__size))

;; alignment_axiom
  (assert (<= 0 alignment))

(declare-const dummy t)

(declare-datatypes () ((t__ref (t__refqtmk (t__content t)))))
(define-fun t__ref_t__content__projection ((a t__ref)) t (t__content a))

(declare-fun trivial (t) Bool)

(declare-fun trivial__function_guard (Bool t) Bool)

;; temp___result_163'def
  (assert
  (forall ((temp___162 t)) (trivial__function_guard (trivial temp___162)
  temp___162)))

(define-fun default_initial_assumption ((temp___expr_160 t)
  (temp___skip_top_level_161 Bool)) Bool (=>
                                         (not
                                         (= temp___skip_top_level_161 true))
                                         (forall ((j Int))
                                         (=> (and (<= 1 j) (<= j 3))
                                         (and (< 0 j)
                                         (= (trivial temp___expr_160) true))))))

;; trivial__post_axiom
  (assert true)

;; trivial__def_axiom
  (assert
  (forall ((arg t)) (! (= (trivial arg) true) :pattern ((trivial arg)) )))

(declare-const usf t)

;; H
  (assert (forall ((usf1 t)) (trivial__function_guard (trivial usf1) usf1)))

;; H
  (assert true)

;; H
  (assert true)

(declare-const j Int)

;; H
  (assert (<= 1 j))

;; H
  (assert (<= j 3))

(assert
;; defqtvc
 ;; File "/home/kanig/dev/spark2014/benchmark_script/data/tmp-test-S715-026__dic_loop_minimal-11291/src/gnatprove/p__t.mlw", line 158, characters 5-8
  (not (< 0 j)))
(check-sat)
